c This is QMaxSAT 2017 based on 14.07
c This is Glucose 3.0
c This is MiniSat 2.2.0
c WARNING: for repeatability, setting FPU to use double precision
c card = mrwto, comp = 0, pmodel = 0, narr = 4, mct = 42, verb = 0
cr firstCPXsol 0 0 0
c top = 127531
c |  Number of variables:    4050                                             |
c |  Number of clauses:      165238                                           |
c |  Weight of hard clauses: 127531                                           |
c |  Number of soft clauses: 7872                                             |
c |  Number of unit soft clauses: 0                                           |
c |  Maximum Cardinality (by unit): 598344       (0           )               |
c last restart ## conflicts  :  0 132 
o 488 | cpuTime 0.021143 s
c Sum of weights = 149586
c A number of soft clauses remained = 1968
c MRWTO encoding for Pseudo-Boolean Constraints
c sizeMax=488
c No.0 Divisor=8	generated by pow1
c No.1 Divisor=8	generated by pow1
c No.2 Divisor=8	generated by pow1
c p0= 8	p1= 8	p2= 8	
c number of digits = 4
c linkingVar[0].size = 8, linkingVar[1].size = 8, linkingVar[2].size = 8, linkingVar[3].size = 1, 
c Pseudo-Boolean Constraints: 33916 variables and 237509 clauses
c Sum of weights = 149586
c A number of soft clauses remained = 1968
c MRWTO encoding for Pseudo-Boolean Constraints
c sizeMax=488
c No.0 Divisor=8	generated by pow1
c No.1 Divisor=8	generated by pow1
c No.2 Divisor=8	generated by pow1
c p0= 8	p1= 8	p2= 8	
c number of digits = 4
c linkingVar[0].size = 8, linkingVar[1].size = 8, linkingVar[2].size = 8, linkingVar[3].size = 1, 
c Pseudo-Boolean Constraints: 33916 variables and 237509 clauses
c Sum of weights = 149586
c A number of soft clauses remained = 1968
c MRWTO encoding for Pseudo-Boolean Constraints
c sizeMax=488
c No.0 Divisor=8	generated by pow1
c No.1 Divisor=8	generated by pow1
c No.2 Divisor=8	generated by pow1
c p0= 8	p1= 8	p2= 8	
c number of digits = 4
c linkingVar[0].size = 8, linkingVar[1].size = 8, linkingVar[2].size = 8, linkingVar[3].size = 1, 
c Pseudo-Boolean Constraints: 33916 variables and 237509 clauses
c Sum of weights = 149586
c A number of soft clauses remained = 1968
c MRWTO encoding for Pseudo-Boolean Constraints
c sizeMax=488
c No.0 Divisor=8	generated by pow1
c No.1 Divisor=8	generated by pow1
c No.2 Divisor=8	generated by pow1
c p0= 8	p1= 8	p2= 8	
c number of digits = 4
c linkingVar[0].size = 8, linkingVar[1].size = 8, linkingVar[2].size = 8, linkingVar[3].size = 1, 
c Pseudo-Boolean Constraints: 33916 variables and 237509 clauses
s UNKNOWN
c Search is stopped by a limit (maybe time-limit)
cr positiVarArr: [ | 5(1->2) | 51(1->3) | 97(1->4) | 143(1->5) | 189(2->6) | 235(3->7) | 281(4->8) | 327(5->9) | 373(6->10) | 419(7->11) | 465(8->12) | 511(9->13) | 557(10->14) | 603(11->15) | 649(12->16) | 695(13->17) | 741(14->18) | 787(15->19) | 833(16->20) | 879(17->21) | 925(18->22) | 971(19->23) | 1017(20->24) | 1063(21->25) | 1109(22->26) | 1155(23->27) | 1201(24->28) | 1247(25->29) | 1293(26->30) | 1339(27->31) | 1385(28->32) | 1431(29->33) | 1477(30->34) | 1523(31->35) | 1569(32->36) | 1615(33->37) | 1661(34->38) | 1707(35->39) | 1753(36->40) | 1799(37->41) | 1845(38->42) | 1849(39->1) | 1893(40->1) | 1937(41->1) | 1981(42->1) | ]
cr the 1-th chain: [ 1->2->6->10->14->18->22->26->30->34->38->42->1 ] (#non-depot=11) {#cumul.=12}
cr the 2-th chain: [ 1->3->7->11->15->19->23->27->31->35->39->1 ] (#non-depot=10) {#cumul.=22}
cr the 3-th chain: [ 1->4->8->12->16->20->24->28->32->36->40->1 ] (#non-depot=10) {#cumul.=32}
cr the 4-th chain: [ 1->5->9->13->17->21->25->29->33->37->41->1 ] (#non-depot=10) {#cumul.=42}
c Latest Answer = 0 by 1 loops
c restarts              : 64697
c conflicts             : 20827051       (5795 /sec)
c decisions             : 80716476       (0.00 % random) (22458 /sec)
c propagations          : 28121700302    (7824474 /sec)
c conflict literals     : 2165748561     (34.87 % deleted)
c Memory used           : 436.00 MB
c CPU time              : 3594.07 s
